



































































































13 52 1 56 58 
65 38 0 7 54 
37 23 5 19 44 2 
48 43 74 71 3 
21 63 6 25 29 
67 62 55 59 18 
9 10 47 69 60 
41 14 8 51 31 15 
33 53 17 34 76 
16 68 36 42 75 
49 57 39 11 30 
45 64 20 46 27 
73 4 50 12 24 
72 61 28 70 26 22 
40 32 35 66 
